NAME : problems/30-tsp/instance-21.tsp
COMMENT : No Comment
TYPE : TSP
DIMENSION: 30
EDGE_WEIGHT_TYPE : EUC_2D
NODE_COORD_SECTION
1 3694 3761 
2 6144 5518 
3 183 1277 
4 8582 4607 
5 1929 2366 
6 1613 2493 
7 6368 6495 
8 447 1059 
9 4309 7281 
10 2019 7298 
11 9628 3574 
12 408 5101 
13 720 1658 
14 7766 9992 
15 8646 6427 
16 7216 5459 
17 3488 7739 
18 7639 1046 
19 1562 99 
20 1415 6361 
21 7410 8124 
22 7086 3735 
23 2272 4226 
24 7281 8266 
25 6165 7830 
26 6406 2324 
27 2631 880 
28 4090 7179 
29 6514 19 
30 1204 5680 
EOF
